543 5
10 10 10 10 10 

0 0 0 0 0 0 5 2 14 26 38 50 
0 0 0 0 0 0 3 3 4 12 
8 0 0 0 0 1 2 8 5 
9 0 0 0 0 2 1 5 
3 0 0 0 0 2 1 6 
5 0 0 0 0 2 1 7 
1 0 0 0 0 1 1 9 
10 0 0 0 0 5 2 9 466 
9 0 0 0 0 5 1 10 
1 0 0 0 0 1 1 11 
6 0 0 0 0 3 1 13 
6 0 0 0 0 3 1 13 
0 0 0 0 0 0 1 62 
0 0 0 0 0 0 2 15 18 
1 0 0 0 0 1 2 16 421 
1 0 0 0 0 1 2 19 17 
3 0 0 0 0 2 2 22 20 
3 0 0 0 0 1 1 19 
8 0 0 0 0 3 2 22 21 
5 0 0 0 0 2 1 21 
1 0 0 0 0 4 1 23 
4 0 0 0 0 3 1 23 
10 0 0 0 0 2 1 24 
4 0 0 0 0 6 1 25 
0 0 0 0 0 0 1 62 
0 0 0 0 0 0 2 27 29 
3 0 0 0 0 1 1 28 
2 0 0 0 0 4 2 33 30 
3 0 0 0 0 2 2 33 32 
10 0 0 0 0 2 1 31 
4 0 0 0 0 4 1 32 
3 0 0 0 0 3 2 36 34 
1 0 0 0 0 3 1 34 
6 0 0 0 0 1 1 35 
4 0 0 0 0 4 2 37 252 
1 0 0 0 0 1 1 37 
0 0 0 0 0 0 1 62 
0 0 0 0 0 0 3 39 40 42 
9 0 0 0 0 1 1 41 
7 0 0 0 0 3 1 41 
5 0 0 0 0 3 2 48 43 
6 0 0 0 0 3 2 48 45 
8 0 0 0 0 3 1 44 
3 0 0 0 0 2 1 45 
7 0 0 0 0 2 1 46 
5 0 0 0 0 3 2 47 107 
1 0 0 0 0 4 1 49 
6 0 0 0 0 1 1 49 
0 0 0 0 0 0 1 62 
0 0 0 0 0 0 3 51 55 385 
1 1 0 0 0 0 2 54 52 
10 1 0 0 0 0 2 57 53 
9 1 0 0 0 0 1 56 
10 2 0 0 0 0 1 57 
3 1 0 0 0 0 1 56 
4 3 0 0 0 0 1 58 
10 5 0 0 0 0 1 58 
5 4 0 0 0 0 1 59 
4 4 0 0 0 0 1 60 
5 3 0 0 0 0 1 61 
0 0 0 0 0 0 1 62 
0 0 0 0 0 0 5 63 75 117 159 201 
0 0 0 0 0 0 2 64 70 
4 1 0 0 0 0 2 73 65 
4 4 0 0 0 0 2 72 66 
4 2 0 0 0 0 1 67 
2 1 0 0 0 0 1 68 
6 2 0 0 0 0 1 69 
3 3 0 0 0 0 1 71 
6 2 0 0 0 0 2 72 434 
5 3 0 0 0 0 1 74 
2 4 0 0 0 0 1 74 
4 3 0 0 0 0 1 74 
0 0 0 0 0 0 5 243 255 287 319 351 
0 0 0 0 0 0 2 76 77 
5 1 0 1 1 1 2 80 79 
2 4 0 3 2 3 1 78 
8 1 0 2 1 4 1 79 
5 4 0 1 3 1 1 81 
2 1 0 1 2 3 1 81 
10 4 0 1 2 2 1 82 
6 1 0 1 2 2 1 83 
3 3 0 5 2 1 1 84 
2 2 0 3 3 2 2 87 85 
7 1 0 3 1 4 1 86 
5 3 0 2 2 3 1 88 
1 9 0 2 1 4 1 88 
7 1 0 3 1 2 2 89 375 
3 2 0 4 6 1 1 90 
5 2 0 2 3 3 1 91 
3 3 0 3 3 5 1 92 
8 4 0 1 6 4 3 95 94 93 
7 2 0 1 3 2 2 99 97 
6 4 0 2 1 1 1 96 
1 4 0 3 2 3 2 99 98 
9 2 0 3 4 3 1 97 
7 2 0 2 6 4 1 98 
2 2 0 1 3 3 2 103 100 
10 2 0 1 3 3 2 103 100 
2 2 0 4 2 1 1 101 
5 1 0 4 2 2 1 102 
1 1 0 4 2 2 2 105 104 
4 1 0 2 2 4 1 104 
7 5 0 5 1 4 1 106 
7 4 0 2 3 5 3 111 109 108 
9 3 0 2 1 1 1 107 
2 1 0 1 5 2 2 111 108 
7 2 0 2 2 3 1 110 
6 3 0 4 1 1 1 110 
6 2 0 2 1 2 1 112 
4 2 0 1 4 1 1 112 
9 1 0 4 4 2 1 113 
6 2 0 5 2 2 1 114 
3 3 0 3 3 2 1 115 
9 3 0 4 2 2 1 116 
0 0 0 0 0 0 1 543 
0 0 0 0 0 0 2 118 119 
4 1 0 1 1 1 2 122 121 
2 4 0 5 2 3 1 120 
3 1 0 3 2 3 1 121 
10 2 0 2 3 2 1 123 
3 2 0 4 1 2 1 123 
9 1 0 3 2 1 1 124 
2 1 0 6 2 2 1 125 
3 1 0 2 2 1 1 126 
1 3 0 2 3 2 2 129 127 
5 3 0 1 5 3 1 128 
10 1 0 1 1 1 1 130 
10 2 0 3 2 2 1 130 
5 2 0 2 4 3 1 131 
3 2 0 2 4 2 1 132 
2 1 0 2 4 1 1 133 
2 2 0 4 1 2 1 134 
5 2 0 4 3 1 3 137 136 135 
2 2 0 4 2 4 2 141 139 
7 3 0 3 3 2 1 138 
4 6 0 3 4 1 2 141 140 
3 2 0 2 4 1 1 139 
2 3 0 2 2 2 1 140 
8 3 0 3 2 4 3 145 142 524 
8 2 0 3 1 6 2 145 142 
4 2 0 2 5 4 1 143 
6 2 0 4 2 4 1 144 
3 2 0 5 5 4 2 147 146 
1 3 0 1 1 3 2 151 146 
3 2 0 1 3 3 1 148 
1 4 0 4 2 1 3 153 151 150 
1 2 0 1 2 4 1 149 
3 3 0 2 2 2 2 153 150 
1 3 0 1 1 3 1 152 
1 5 0 2 2 3 1 152 
8 5 0 1 3 3 1 154 
9 2 0 1 3 4 1 154 
9 4 0 1 3 3 1 155 
4 4 0 2 1 3 1 156 
6 3 0 2 4 1 1 157 
8 2 0 3 1 3 1 158 
0 0 0 0 0 0 1 543 
0 0 0 0 0 0 3 160 168 175 
2 0 1 1 1 1 1 161 
3 0 3 5 4 1 1 162 
6 0 2 1 3 3 1 163 
4 0 1 3 2 1 1 164 
9 0 1 3 2 2 2 174 165 
2 0 2 3 2 2 1 166 
7 0 1 1 3 2 1 167 
8 0 2 3 5 3 1 169 
4 0 4 2 3 3 1 169 
1 0 1 1 3 6 1 170 
3 0 3 3 2 2 1 171 
5 0 3 3 1 2 1 172 
2 0 2 3 3 2 2 188 173 
8 0 2 1 3 1 2 199 176 
8 0 2 2 1 1 2 199 176 
7 0 2 2 2 4 2 188 176 
1 0 1 1 3 3 2 190 177 
9 0 1 2 2 2 2 198 178 
1 0 5 4 4 3 1 179 
1 0 3 1 4 2 1 180 
9 0 5 5 2 3 1 181 
9 0 1 4 2 3 2 195 182 
10 0 4 3 1 3 3 197 196 183 
6 0 3 2 2 1 1 184 
5 0 2 5 1 2 1 185 
10 0 2 3 3 3 1 186 
2 0 3 2 4 1 1 187 
10 0 2 3 4 3 1 189 
3 0 4 3 2 4 2 195 192 
6 0 5 3 1 2 1 191 
7 0 2 1 3 3 1 191 
5 0 4 2 5 3 1 192 
7 0 2 4 2 3 2 193 504 
8 0 2 3 2 8 1 194 
1 0 4 1 2 1 1 200 
8 0 2 2 2 3 1 200 
2 0 2 4 2 1 1 200 
10 0 5 2 2 2 1 200 
1 0 2 2 2 1 1 200 
3 0 2 1 3 4 1 200 
0 0 0 0 0 0 1 543 
0 0 0 0 0 0 3 202 210 217 
3 0 1 1 1 1 1 203 
1 0 1 2 2 1 1 204 
9 0 1 3 3 1 1 205 
8 0 3 5 4 1 1 206 
4 0 2 2 2 2 2 216 207 
4 0 3 1 2 2 1 208 
9 0 3 3 4 4 1 209 
5 0 2 4 4 3 1 211 
1 0 2 5 2 2 1 211 
6 0 6 2 2 2 1 212 
1 0 1 2 3 4 1 213 
7 0 2 2 1 3 1 214 
1 0 5 1 1 3 2 229 215 
9 0 4 1 1 3 2 241 218 
8 0 2 1 5 2 2 241 218 
9 0 1 2 2 2 2 229 218 
3 0 2 3 5 5 2 231 219 
2 0 3 1 2 3 2 240 220 
9 0 2 2 6 2 1 221 
2 0 2 2 1 3 1 222 
1 0 2 2 2 3 1 223 
7 0 3 2 1 2 2 237 224 
2 0 2 2 1 2 3 239 238 225 
4 0 3 2 3 1 1 226 
9 0 3 2 2 4 2 227 278 
8 0 1 3 2 5 1 228 
3 0 6 1 1 2 1 230 
5 0 1 4 1 2 2 237 233 
2 0 3 3 5 6 1 232 
3 0 3 4 1 2 1 232 
10 0 3 2 1 1 1 233 
7 0 6 3 2 1 1 234 
6 0 2 3 4 4 1 235 
3 0 2 2 3 1 1 236 
9 0 3 3 4 4 1 242 
7 0 1 4 1 3 1 242 
3 0 2 2 3 3 1 242 
3 0 1 3 4 3 1 242 
10 0 3 4 2 1 1 242 
6 0 2 4 4 1 1 242 
0 0 0 0 0 0 1 543 
0 0 0 0 0 0 2 244 419 
8 0 0 1 0 0 2 246 245 
10 0 0 2 0 0 2 248 247 
8 0 0 3 0 0 2 248 247 
6 0 0 3 0 0 1 249 
8 0 0 4 0 0 1 249 
7 0 0 2 0 0 2 251 250 
6 0 0 2 0 0 1 252 
3 0 0 3 0 0 1 252 
2 0 0 2 0 0 1 253 
1 0 0 3 0 0 1 254 
0 0 0 0 0 0 5 383 395 417 439 461 
0 0 0 0 0 0 2 256 262 
3 0 0 1 1 1 1 257 
2 0 0 3 2 5 2 260 258 
1 0 0 3 1 2 1 259 
5 0 0 1 3 4 1 261 
9 0 0 2 2 2 1 261 
8 0 0 2 2 4 2 268 263 
10 0 0 3 1 1 2 268 263 
7 0 0 5 4 2 1 264 
9 0 0 1 3 2 2 277 265 
9 0 0 3 4 4 1 266 
1 0 0 1 1 2 1 267 
2 0 0 4 2 2 2 275 269 
9 0 0 1 1 3 2 270 269 
3 0 0 1 1 2 2 281 271 
4 0 0 5 3 2 3 281 271 403 
5 0 0 2 6 4 2 285 272 
10 0 0 1 3 4 1 273 
7 0 0 4 1 1 1 274 
10 0 0 3 2 2 1 276 
2 0 0 3 4 2 1 276 
3 0 0 3 2 3 1 278 
9 0 0 2 2 4 2 285 281 
3 0 0 3 2 1 1 279 
8 0 0 3 3 2 1 280 
5 0 0 2 4 3 1 282 
1 0 0 1 3 3 1 282 
2 0 0 3 2 2 1 283 
7 0 0 2 5 2 1 284 
2 0 0 4 3 3 1 286 
6 0 0 3 2 1 1 286 
0 0 0 0 0 0 1 543 
0 0 0 0 0 0 2 288 305 
6 0 0 1 1 1 1 289 
3 0 0 2 2 2 1 290 
6 0 0 2 2 2 1 291 
8 0 0 3 3 1 1 292 
4 0 0 5 1 1 2 299 293 
3 0 0 1 2 2 1 294 
3 0 0 1 4 3 1 295 
6 0 0 4 2 2 3 304 298 296 
5 0 0 2 3 6 2 301 297 
9 0 0 5 3 4 3 307 303 300 
4 0 0 2 3 3 2 307 302 
3 0 0 2 2 2 1 300 
5 0 0 3 1 4 1 302 
9 0 0 2 3 2 1 302 
2 0 0 2 2 2 1 306 
3 0 0 3 3 3 1 306 
6 0 0 2 2 2 1 307 
4 0 0 4 3 3 1 306 
10 0 0 2 2 4 1 308 
7 0 0 2 1 2 1 308 
5 0 0 1 4 2 1 309 
3 0 0 2 4 4 2 316 310 
2 0 0 3 4 3 1 311 
4 0 0 3 1 3 1 312 
6 0 0 5 6 1 1 313 
10 0 0 3 1 2 1 314 
8 0 0 3 3 2 1 315 
10 0 0 2 2 1 1 317 
6 0 0 1 2 4 1 317 
5 0 0 2 3 2 1 318 
0 0 0 0 0 0 1 543 
0 0 0 0 0 0 2 320 349 
10 1 1 0 0 1 1 321 
9 1 3 0 0 1 1 322 
4 4 2 0 0 2 1 323 
8 3 4 0 0 1 1 324 
7 2 2 0 0 5 2 343 325 
9 2 1 0 0 2 1 326 
9 2 3 0 0 2 1 327 
4 2 2 0 0 5 3 337 330 328 
7 3 2 0 0 2 2 332 329 
9 2 1 0 0 3 3 336 334 331 
5 1 4 0 0 1 2 336 335 
9 1 2 0 0 2 1 333 
10 2 5 0 0 3 1 333 
4 2 3 0 0 5 1 335 
8 3 1 0 0 1 1 335 
3 2 4 0 0 2 1 338 
8 1 2 0 0 1 1 338 
6 6 3 0 0 3 1 338 
10 3 2 0 0 3 1 339 
9 3 2 0 0 2 2 348 340 
5 2 2 0 0 4 1 341 
6 4 2 0 0 4 1 342 
5 2 3 0 0 1 1 344 
6 2 3 0 0 3 1 344 
2 1 2 0 0 2 1 345 
9 4 1 0 0 3 1 346 
3 4 4 0 0 2 1 347 
3 4 4 0 0 3 1 350 
10 4 4 0 0 3 1 350 
9 2 1 0 0 3 1 350 
0 0 0 0 0 0 1 543 
0 0 0 0 0 0 8 352 375 376 377 378 379 380 381 
5 0 0 1 1 1 1 353 
8 0 0 2 3 3 1 354 
9 0 0 1 4 1 1 355 
8 0 0 3 3 4 2 374 356 
10 0 0 2 2 5 1 357 
7 0 0 1 3 5 1 358 
4 0 0 4 3 1 1 359 
8 0 0 4 2 3 1 360 
1 0 0 4 3 1 1 361 
2 0 0 3 2 1 1 362 
3 0 0 2 3 4 1 363 
9 0 0 2 1 3 1 364 
2 0 0 2 3 3 1 365 
4 0 0 1 3 3 1 366 
6 0 0 1 1 2 1 367 
9 0 0 1 3 2 1 368 
10 0 0 2 1 1 1 369 
2 0 0 4 2 1 1 370 
8 0 0 3 4 3 1 371 
2 0 0 2 2 3 1 372 
3 0 0 1 3 2 1 373 
5 0 0 5 3 1 1 382 
9 0 0 5 3 4 1 382 
4 0 0 1 3 2 1 382 
1 0 0 2 1 2 1 382 
9 0 0 7 1 3 1 382 
3 0 0 2 1 2 1 382 
5 0 0 3 3 5 1 382 
2 0 0 3 3 3 1 382 
7 0 0 1 5 1 1 382 
0 0 0 0 0 0 1 543 
0 0 0 0 0 0 2 384 391 
4 0 1 0 0 0 2 390 385 
3 0 2 0 0 0 1 386 
6 0 2 0 0 0 1 387 
5 0 3 0 0 0 2 393 388 
7 0 2 0 0 0 1 389 
3 0 5 0 0 0 1 392 
1 0 3 0 0 0 1 392 
1 0 2 0 0 0 1 392 
1 0 3 0 0 0 1 394 
3 0 2 0 0 0 1 394 
0 0 0 0 0 0 5 483 495 507 519 531 
0 0 0 0 0 0 2 396 398 
6 1 0 1 0 0 2 400 397 
3 2 0 3 0 0 1 399 
5 4 0 3 0 0 1 399 
2 2 0 3 0 0 1 401 
6 3 0 4 0 0 1 401 
6 3 0 2 0 0 1 402 
8 1 0 5 0 0 1 403 
7 2 0 1 0 0 2 405 404 
5 2 0 1 0 0 1 406 
9 2 0 4 0 0 1 406 
4 2 0 3 0 0 1 407 
4 1 0 3 0 0 2 411 408 
10 1 0 2 0 0 1 409 
6 4 0 3 0 0 2 415 410 
10 4 0 2 0 0 1 412 
6 5 0 1 0 0 1 412 
8 3 0 2 0 0 1 413 
3 2 0 2 0 0 1 414 
10 2 0 3 0 0 1 416 
10 4 0 2 0 0 1 416 
0 0 0 0 0 0 1 543 
0 0 0 0 0 0 3 418 425 427 
6 1 0 0 1 0 1 419 
6 3 0 0 3 0 1 420 
10 1 0 0 1 0 1 421 
8 3 0 0 4 0 1 422 
7 2 0 0 3 0 2 434 423 
1 1 0 0 1 0 1 424 
7 3 0 0 4 0 1 426 
8 2 0 0 3 0 1 426 
2 5 0 0 2 0 2 437 428 
2 3 0 0 2 0 2 432 430 
4 4 0 0 3 0 1 429 
3 3 0 0 2 0 1 430 
2 5 0 0 4 0 1 431 
8 2 0 0 2 0 1 433 
3 3 0 0 3 0 1 433 
5 4 0 0 2 0 1 435 
4 2 0 0 1 0 1 435 
1 1 0 0 1 0 1 436 
3 1 0 0 4 0 1 438 
1 1 0 0 4 0 1 438 
0 0 0 0 0 0 1 543 
0 0 0 0 0 0 2 440 449 
9 0 1 0 1 0 3 459 455 441 
4 0 2 0 1 0 1 442 
1 0 3 0 4 0 1 443 
7 0 2 0 2 0 1 444 
10 0 3 0 2 0 2 458 445 
9 0 3 0 4 0 1 446 
8 0 1 0 3 0 2 453 447 
4 0 2 0 2 0 1 448 
7 0 1 0 3 0 1 450 
5 0 1 0 4 0 1 450 
9 0 1 0 2 0 1 451 
1 0 3 0 4 0 1 452 
1 0 6 0 1 0 1 454 
5 0 5 0 1 0 1 454 
7 0 2 0 4 0 1 456 
10 0 4 0 1 0 1 456 
7 0 1 0 2 0 1 457 
10 0 2 0 5 0 1 460 
2 0 4 0 2 0 1 460 
3 0 3 0 2 0 1 460 
0 0 0 0 0 0 1 543 
0 0 0 0 0 0 1 462 
2 1 0 0 0 1 2 465 463 
6 2 0 0 0 5 2 467 464 
6 6 0 0 0 2 1 466 
8 2 0 0 0 2 1 466 
1 2 0 0 0 3 1 468 
7 1 0 0 0 1 1 468 
7 3 0 0 0 3 1 469 
4 2 0 0 0 3 3 474 472 470 
3 1 0 0 0 1 1 471 
5 1 0 0 0 2 1 473 
5 3 0 0 0 2 1 473 
4 2 0 0 0 3 2 478 475 
7 3 0 0 0 3 2 478 476 
10 5 0 0 0 4 1 476 
1 3 0 0 0 2 1 477 
6 1 0 0 0 2 1 479 
5 2 0 0 0 2 1 479 
2 3 0 0 0 3 1 480 
3 4 0 0 0 2 1 481 
10 3 0 0 0 4 1 482 
0 0 0 0 0 0 1 543 
0 0 0 0 0 0 2 484 486 
8 0 0 1 0 0 1 485 
3 0 0 1 0 0 2 488 487 
8 0 0 2 0 0 2 488 487 
9 0 0 2 0 0 2 492 489 
10 0 0 2 0 0 2 492 489 
2 0 0 6 0 0 1 490 
2 0 0 2 0 0 1 491 
4 0 0 2 0 0 1 493 
5 0 0 3 0 0 1 493 
3 0 0 4 0 0 1 494 
0 0 0 0 0 0 1 543 
0 0 0 0 0 0 2 496 505 
7 0 0 0 1 0 2 502 497 
10 0 0 0 3 0 1 498 
9 0 0 0 4 0 1 499 
4 0 0 0 2 0 2 504 500 
7 0 0 0 3 0 1 501 
3 0 0 0 4 0 1 503 
5 0 0 0 1 0 1 504 
9 0 0 0 2 0 1 506 
3 0 0 0 4 0 1 506 
5 0 0 0 1 0 1 506 
0 0 0 0 0 0 1 543 
0 0 0 0 0 0 2 508 509 
8 0 0 1 0 0 2 515 510 
7 0 0 2 0 0 2 515 511 
9 0 0 1 0 0 1 511 
2 0 0 4 0 0 1 512 
2 0 0 3 0 0 1 513 
1 0 0 2 0 0 2 517 514 
3 0 0 3 0 0 1 516 
9 0 0 5 0 0 1 516 
9 0 0 2 0 0 1 518 
2 0 0 2 0 0 1 518 
0 0 0 0 0 0 1 543 
0 0 0 0 0 0 3 520 521 529 
7 0 0 1 0 0 2 524 522 
2 0 0 4 0 0 1 522 
3 0 0 4 0 0 1 523 
4 0 0 3 0 0 1 525 
4 0 0 4 0 0 1 525 
2 0 0 1 0 0 1 526 
2 0 0 1 0 0 1 527 
6 0 0 1 0 0 1 528 
2 0 0 3 0 0 1 530 
9 0 0 3 0 0 1 530 
0 0 0 0 0 0 1 543 
0 0 0 0 0 0 1 532 
8 0 0 1 0 0 2 541 533 
7 0 0 1 0 0 2 537 534 
6 0 0 1 0 0 1 535 
4 0 0 2 0 0 1 536 
7 0 0 3 0 0 2 540 538 
7 0 0 1 0 0 2 540 539 
10 0 0 3 0 0 1 539 
7 0 0 2 0 0 1 542 
9 0 0 4 0 0 1 542 
6 0 0 7 0 0 1 542 
0 0 0 0 0 0 1 543 
0 0 0 0 0 0 0 
